StudentsNr = 10;
InstructorsNr = 8;
DaysNr = 2;
SlotsPerDay = 15;
AvailabilitySlotsLenght = 1;
RoomNr = 1;
ProgrammNr = 2;
DegreeNr = 3;
RolesNr = 3;
CoursesNr = 6;
InstructorsProgramm = [{2}, {1}, {2}, {1}, {1, 2}, {1, 2}, {1}, {1}];
InstructorRolesPerProgramm = [|{2, 4}, {2, 5, 6, 8}, {4, 6, 8}|{}, {5, 6}, {6}|];
InstructorsAvailability = [|0, 1, 1, 0, 1, 1, 1, 1, 1, 1, 1, 1, 1, 1, 0, 1, 0, 1, 1, 1, 1, 1, 0, 1, 0, 1, 1, 1, 1, 1, |1, 0, 0, 0, 1, 1, 0, 0, 0, 0, 0, 1, 1, 1, 1, 1, 0, 1, 1, 1, 1, 1, 1, 1, 1, 1, 1, 1, 1, 1, |1, 0, 1, 1, 1, 1, 1, 1, 0, 1, 1, 0, 1, 1, 1, 1, 1, 1, 0, 0, 1, 0, 1, 0, 0, 1, 1, 1, 1, 1, |1, 1, 1, 1, 1, 1, 1, 1, 1, 0, 1, 1, 1, 1, 1, 1, 1, 1, 1, 0, 0, 0, 0, 1, 1, 1, 1, 1, 1, 1, |1, 1, 0, 0, 0, 1, 1, 1, 1, 0, 1, 1, 1, 1, 0, 0, 0, 0, 1, 1, 0, 1, 1, 0, 0, 0, 1, 1, 1, 0, |1, 1, 1, 1, 0, 1, 1, 1, 1, 1, 1, 1, 1, 1, 1, 1, 1, 1, 1, 1, 1, 1, 1, 1, 1, 1, 1, 1, 1, 1, |1, 1, 1, 0, 1, 1, 1, 1, 1, 1, 1, 1, 1, 1, 1, 1, 1, 1, 1, 1, 1, 1, 1, 1, 0, 1, 1, 1, 1, 1, |0, 1, 1, 1, 1, 1, 1, 1, 1, 1, 1, 1, 1, 1, 1, 1, 1, 1, 1, 1, 1, 1, 1, 1, 0, 1, 1, 1, 1, 1|];
StudentsProgramm = [2, 1, 1, 1, 1, 1, 1, 2, 2, 2];
StudentsDegree = [2, 1, 3, 1, 3, 3, 3, 1, 1, 1];
StudentsSupervisorId = [6, 6, 8, 4, 5, 4, 8, 1, 3, 3];
StudentsCourseIds = [{1, 2, 3, 4, 5, 6}, {1, 2, 3, 4, 5, 6}, {1, 3}, {1, 2, 3, 4, 5, 6}, {2, 3}, {4, 6}, {2, 6}, {1, 2, 3, 4, 5, 6}, {1, 2, 3, 4, 5, 6}, {1, 2, 3, 4, 5, 6}];
StudentsAvailability = [|0, 1, 1, 1, 1, 0, 0, 0, 1, 0, 0, 0, 1, 1, 1, 1, 1, 1, 1, 1, 1, 1, 1, 1, 0, 0, 0, 0, 0, 1, |1, 1, 1, 1, 1, 1, 1, 1, 1, 1, 1, 1, 1, 1, 1, 1, 1, 1, 1, 1, 1, 1, 1, 1, 0, 1, 1, 1, 1, 1, |1, 1, 0, 1, 1, 1, 0, 0, 1, 0, 1, 1, 1, 1, 1, 0, 1, 1, 1, 1, 1, 1, 1, 1, 1, 1, 1, 1, 1, 1, |0, 0, 1, 1, 1, 1, 1, 1, 1, 1, 1, 1, 1, 1, 1, 1, 1, 1, 1, 1, 1, 1, 1, 1, 1, 1, 1, 1, 1, 1, |0, 0, 1, 1, 1, 0, 0, 1, 0, 0, 1, 0, 1, 1, 1, 1, 1, 1, 1, 1, 1, 1, 1, 1, 1, 1, 1, 1, 1, 1, |1, 1, 1, 1, 0, 1, 1, 1, 1, 1, 1, 1, 1, 1, 1, 0, 0, 0, 1, 1, 1, 1, 1, 1, 1, 0, 0, 0, 1, 1, |1, 1, 1, 1, 1, 1, 1, 1, 1, 1, 1, 1, 1, 1, 1, 1, 1, 1, 1, 1, 1, 1, 1, 1, 1, 1, 1, 1, 1, 1, |0, 1, 1, 1, 1, 1, 1, 1, 1, 1, 1, 1, 1, 1, 1, 1, 1, 1, 1, 1, 1, 1, 1, 1, 1, 1, 1, 1, 1, 1, |0, 0, 1, 1, 1, 1, 1, 1, 1, 1, 1, 1, 1, 1, 1, 1, 1, 1, 1, 1, 1, 1, 1, 1, 1, 1, 1, 1, 1, 1, |1, 1, 1, 1, 0, 1, 1, 1, 1, 1, 1, 1, 0, 0, 0, 0, 1, 0, 0, 1, 0, 0, 0, 0, 0, 0, 1, 1, 1, 1|];
TheoryticalMinCard = [2, 0, 0, 0, 0, 0, 0, 2, 2, 2];
CoursesInstructorIds = [{1, 3, 6, 7, 8}, {3, 4, 8}, {1, 2, 3, 4, 5, 7}, {1, 3, 4, 6, 7}, {8}, {1, 3, 4, 5, 7, 8}];
RolesDemands = [1, 2, 1];
RolesContinuity = [];
ExamLen = [2, 2, 1, 2, 1, 1, 1, 2, 2, 2];
LunchTsMinLen = 0;
LunchStarts = [3..11, 21..23];
SupervisorAvailable = 0;
OptimalLunchLenght = [2, 1];
OptimalStartTs = [2, 0];
OptimalFinishTs = [2, 15];
MinimizeRooms = 400;
RolesSoftContinuity = [|1, 2, 3|1, 0, 1|];
SameDegreeInRoom = 0;
Mergeability = 2;
